db/data/322113151181132483339773953291003750.z3.out
sat
-------------------
.072231354
